Cr In O
1.0
        4.235550    2.820200    0.000000
       -4.235550    2.820200    0.000000
       -0.004560    0.000000    6.532298
Cr In O
3 1 8
Cartesian
-1.20748904 2.82020000 1.72518001
1.20292864 2.82020000 4.80711840
-0.00228020 0.00000000 3.26614920
0.00000000 0.00000000 0.00000000
-0.23759370 4.29460056 1.79050299
0.23303329 4.29460056 4.74179541
0.23303329 1.34579944 4.74179541
-0.23759370 1.34579944 1.79050299
2.05241832 2.82020000 6.25206281
-2.05697872 2.82020000 0.28023560
2.34484362 2.82020000 3.57839307
-2.34940403 2.82020000 2.95390534
