Cr In O
1.0
  4.23555000000000  2.82020000000000  0.00000000000000
  4.23555000000000 -2.82020000000000  0.00000000000000
  0.00456000000000  0.00000000000000 -6.53229800000000
Cr In O
3  1  8
Direct
   0.35759998773188  0.35759998773188 0.73589998343615
   0.64239996508254  0.64239996508254 0.26409995379880
  -0.00000002359320 -0.00000002359320 0.49999996938290
   0.00000000000000  0.00000000000000 0.00000000000000
   0.73349998655140  0.21069998655140 0.72589998343615
   0.78929996508171  0.26649996508171 0.27409995532966
   0.26649996508171  0.78929996508171 0.27409995532966
   0.21069998655140  0.73349998655140 0.72589998343615
   0.74279995470189  0.74279995470189 0.04289993965370
   0.25719999811253  0.25719999811253 0.95709999758125
   0.77709997381184  0.77709997381184 0.45219996546391
   0.22289997782209  0.22289997782209 0.54779997177104
