Cr O In
 1.0
8.471100 0.000000 0.000000
0.000000 5.640400 0.000000
-0.004560 0.000000 6.532298
Cr In O
6 2 16
direct
 0.3576000000 0.0000000000 0.2641000000
 0.8576000000 0.5000000000 0.2641000000
 0.0000000000 0.0000000000 0.5000000000
 0.5000000000 0.5000000000 0.5000000000
 0.6424000000 0.0000000000 0.7359000000
 0.1424000000 0.5000000000 0.7359000000
 0.0000000000 0.0000000000 0.0000000000
 0.5000000000 0.5000000000 0.0000000000
 0.2572000000 0.0000000000 0.0429000000
 0.7572000000 0.5000000000 0.0429000000
 0.9721000000 0.2386000000 0.2741000000
 0.4721000000 0.2614000000 0.2741000000
 0.4721000000 0.7386000000 0.2741000000
 0.9721000000 0.7614000000 0.2741000000
 0.2229000000 0.0000000000 0.4522000000
 0.7229000000 0.5000000000 0.4522000000
 0.7771000000 0.0000000000 0.5478000000
 0.2771000000 0.5000000000 0.5478000000
 0.0279000000 0.2386000000 0.7259000000
 0.5279000000 0.2614000000 0.7259000000
 0.5279000000 0.7386000000 0.7259000000
 0.0279000000 0.7614000000 0.7259000000
 0.7428000000 0.0000000000 0.9571000000
 0.2428000000 0.5000000000 0.9571000000
