Cr O In
 1.0
-4.235550 -2.820200 -0.000000
-4.235550 2.820200 -0.000000
0.004560 -0.000000 -6.532298
Cr In O
3 1 8
direct
 0.6424000000 0.6424000000 0.7359000000
 0.0000000000 0.0000000000 0.5000000000
 0.3576000000 0.3576000000 0.2641000000
 0.0000000000 0.0000000000 0.0000000000
 0.7428000000 0.7428000000 0.9571000000
 0.7893000000 0.2665000000 0.7259000000
 0.2665000000 0.7893000000 0.7259000000
 0.7771000000 0.7771000000 0.5478000000
 0.2229000000 0.2229000000 0.4522000000
 0.7335000000 0.2107000000 0.2741000000
 0.2107000000 0.7335000000 0.2741000000
 0.2572000000 0.2572000000 0.0429000000
