Mg                                      
   1.00000000000000     
     3.1795754731558246    0.0000000024678994    0.0000000000000000
    -1.5897882323033852    2.7535931613846434    0.0000000000000000
     0.0000000000000000    0.0000000000000000    5.2221134560705726
   Mg
     2
Direct
  0.3333333332999970  0.6666666667000030  0.2500000000000000
  0.6666666667000030  0.3333333332999970  0.7500000000000000
 
  0.00000000E+00  0.00000000E+00  0.00000000E+00
  0.00000000E+00  0.00000000E+00  0.00000000E+00
