Mg
 1.0
3.193225 0.000000 0.000000
-1.596613 2.765414 0.000000
0.000000 0.000000 5.185384
Mg
2
direct
 0.3333333333 0.6666666667 0.2500000000
 0.6666666667 0.3333333333 0.7500000000
