Hf O Pu                                 
   1.00000000000000     
     4.8433511840855905    0.0000000000000000    0.0000000000000000
     0.0000000000000000    4.8433511840855905    0.0000000000000000
     0.0000000000000000    0.0000000000000000    4.7093074309655352
   Hf   O    Pu
     1     3     1
Direct
  0.4999990769999982  0.4999990769999982 -0.1558884763100146
  0.4999990769999982  0.4999990769999982  0.4594283123837386
  0.4999990769999982  0.0000000000000000  0.7106940676717817
  0.0000000000000000  0.4999990769999982  0.7106940676717817
  0.0000000000000000  0.0000000000000000  0.1750722194827143
 
  0.00000000E+00  0.00000000E+00  0.00000000E+00
  0.00000000E+00  0.00000000E+00  0.00000000E+00
  0.00000000E+00  0.00000000E+00  0.00000000E+00
  0.00000000E+00  0.00000000E+00  0.00000000E+00
  0.00000000E+00  0.00000000E+00  0.00000000E+00
