Hf O Pu
 1.0
4.943189 0.000000 0.000000
0.000000 4.943189 0.000000
0.000000 0.000000 4.824569
Hf O Pu
1 3 1
direct
 0.4999990770 0.4999990770 0.7754641447
 0.4999990770 0.4999990770 0.5400524254
 0.4999990770 0.0000000000 0.7047324327
 0.0000000000 0.4999990770 0.7047324327
 0.0000000000 0.0000000000 0.1750187554
