Cr O In
 1.0
4.235550 2.820200 0.000000
-4.235550 2.820200 0.000000
-0.004560 0.000000 6.532298
Cr In O
3 1 8
direct
 0.1561285121 0.0716567557 0.0404298788
 0.0000412044 0.9999588039 0.0765427466
 0.1392947108 0.9875048194 0.1126556146
 0.0000000000 0.0000000000 0.0000000000
 0.1620583776 0.1013271986 0.0065673676
 0.0721438132 0.0223530357 0.0419607337
 0.2265479908 0.0533257818 0.0419607337
 0.1641241757 0.1114236657 0.0692252601
 0.1312990473 0.9477379097 0.0838602333
 0.0688752322 0.0058357936 0.1111247596
 0.2232794098 0.0368085396 0.1111247596
 0.1333648453 0.9578343765 0.1465181258
