Rh Sn V                                 
   1.00000000000000     
     5.7079180000000003    0.0000000000000000    0.0000000000000000
     0.0000000000000000    5.7079180000000003    0.0000000000000000
     0.0000000000000000    0.0000000000000000    7.4089510000000001
   Rh   Sn   V 
     8     4     4
Direct
  0.0000000000000000  0.5000001734999984  0.4999992836999994
  0.5000001734999984  0.0000000000000000  0.4999992836999994
  0.5000001734999984  0.0000000000000000  0.0000000000000000
  0.0000000000000000  0.5000001734999984  0.0000000000000000
  0.5000001734999984  0.5000001734999984  0.4999992836999994
  0.0000000000000000  0.0000000000000000  0.4999992836999994
  0.5000001734999984  0.5000001734999984  0.0000000000000000
  0.0000000000000000  0.0000000000000000  0.0000000000000000
  0.2500000868000001  0.7500002602999984  0.7499996004000025
  0.7500002602999984  0.2500000868000001  0.7499996004000025
  0.7500002602999984  0.7500002602999984  0.2500003167000031
  0.2500000868000001  0.2500000868000001  0.2500003167000031
  0.2500000868000001  0.7500002602999984  0.2500003167000031
  0.7500002602999984  0.2500000868000001  0.2500003167000031
  0.7500002602999984  0.7500002602999984  0.7499996004000025
  0.2500000868000001  0.2500000868000001  0.7499996004000025
 
  0.00000000E+00  0.00000000E+00  0.00000000E+00
  0.00000000E+00  0.00000000E+00  0.00000000E+00
  0.00000000E+00  0.00000000E+00  0.00000000E+00
  0.00000000E+00  0.00000000E+00  0.00000000E+00
  0.00000000E+00  0.00000000E+00  0.00000000E+00
  0.00000000E+00  0.00000000E+00  0.00000000E+00
  0.00000000E+00  0.00000000E+00  0.00000000E+00
  0.00000000E+00  0.00000000E+00  0.00000000E+00
  0.00000000E+00  0.00000000E+00  0.00000000E+00
  0.00000000E+00  0.00000000E+00  0.00000000E+00
  0.00000000E+00  0.00000000E+00  0.00000000E+00
  0.00000000E+00  0.00000000E+00  0.00000000E+00
  0.00000000E+00  0.00000000E+00  0.00000000E+00
  0.00000000E+00  0.00000000E+00  0.00000000E+00
  0.00000000E+00  0.00000000E+00  0.00000000E+00
  0.00000000E+00  0.00000000E+00  0.00000000E+00
