Rh Sn V
 1.0
5.707918 0.000000 0.000000
0.000000 5.707918 0.000000
0.000000 0.000000 7.408951
Rh Sn V
8 4 4
direct
 0.0000000000 0.5000001735 0.4999992837
 0.5000001735 0.0000000000 0.4999992837
 0.5000001735 0.0000000000 0.0000000000
 0.0000000000 0.5000001735 0.0000000000
 0.5000001735 0.5000001735 0.4999992837
 0.0000000000 0.0000000000 0.4999992837
 0.5000001735 0.5000001735 0.0000000000
 0.0000000000 0.0000000000 0.0000000000
 0.2500000868 0.7500002603 0.7499996004
 0.7500002603 0.2500000868 0.7499996004
 0.7500002603 0.7500002603 0.2500003167
 0.2500000868 0.2500000868 0.2500003167
 0.2500000868 0.7500002603 0.2500003167
 0.7500002603 0.2500000868 0.2500003167
 0.7500002603 0.7500002603 0.7499996004
 0.2500000868 0.2500000868 0.7499996004
