Cr O In                                 
   1.00000000000000     
     3.9148540887171266    2.8049590114625080    0.0256278934445740
    -3.9148540887171266    2.8049590114625080   -0.0256278934445740
     0.0351519005767764    0.0000000000000000    6.3431742474146580
   Cr   In   O 
     3     1     8
Direct
  0.9999986875999980  0.9999995248000033  0.5000000986999993
  0.6314585483956260  0.3685396639043740  0.7369873756817507
  0.3685399626043686  0.6314582497956261  0.2630127385182471
  0.0000000000000000  0.0000000000000000  0.0000000000000000
  0.2494637518406573  0.7505344605593439  0.4843266430767527
  0.7263416921027352  0.2736565201972634  0.9730424073012320
  0.2295219237423545  0.2439920063099626  0.2678209624228572
  0.2439923050099571  0.2295216251423547  0.7321791517771414
  0.7704784470576476  0.7560077671900386  0.7321791517771414
  0.7560080658900402  0.7704781483576459  0.2678209624228572
  0.7505347592593455  0.2494634531406557  0.5156734711232531
  0.2736568188972651  0.7263413934027336  0.0269577068987670
 
  0.00000000E+00  0.00000000E+00  0.00000000E+00
  0.00000000E+00  0.00000000E+00  0.00000000E+00
  0.00000000E+00  0.00000000E+00  0.00000000E+00
  0.00000000E+00  0.00000000E+00  0.00000000E+00
  0.00000000E+00  0.00000000E+00  0.00000000E+00
  0.00000000E+00  0.00000000E+00  0.00000000E+00
  0.00000000E+00  0.00000000E+00  0.00000000E+00
  0.00000000E+00  0.00000000E+00  0.00000000E+00
  0.00000000E+00  0.00000000E+00  0.00000000E+00
  0.00000000E+00  0.00000000E+00  0.00000000E+00
  0.00000000E+00  0.00000000E+00  0.00000000E+00
  0.00000000E+00  0.00000000E+00  0.00000000E+00
