Cr O In
 1.0
3.858829 2.688455 0.019875
-3.858829 2.688455 -0.019875
0.026228 0.000000 6.139289
Cr In O
3 1 8
direct
 0.9999986876 0.9999995248 0.5000000987
 0.6390447612 0.3609534511 0.7375060513
 0.3609537498 0.6390444626 0.2624940629
 0.0000000000 0.0000000000 0.0000000000
 0.2504513146 0.7495468978 0.4973636631
 0.7234995442 0.2764986681 0.9867389658
 0.2488453594 0.2417226788 0.2674574143
 0.2417229775 0.2488450608 0.7325426999
 0.7511550114 0.7582770947 0.7325426999
 0.7582773934 0.7511547127 0.2674574143
 0.7495471965 0.2504510159 0.5026364511
 0.2764989668 0.7234992455 0.0132611484
