Ge Sr                                   
   1.00000000000000     
     4.1043000000000003    0.0000000000000000    0.0000000000000000
    -2.0521500000000001    3.5544280000000001    0.0000000000000000
     0.0000000000000000    0.0000000000000000    5.1654999999999998
   Ge   Sr
   2   1
Direct
  0.3333330000000032  0.6666669999999968  0.4059999999999988
  0.6666669999999968  0.3333330000000032  0.5940000000000012
  0.0000000000000000  0.0000000000000000  0.0000000000000000
 
  0.00000000E+00  0.00000000E+00  0.00000000E+00
  0.00000000E+00  0.00000000E+00  0.00000000E+00
  0.00000000E+00  0.00000000E+00  0.00000000E+00
