Sr Ge
 1.0
4.104300 0.000000 0.000000
-2.052150 3.554428 0.000000
0.000000 0.000000 5.165500
Ge Sr
2 1
direct
 0.333333 0.666667 0.406000
 0.666667 0.333333 0.594000
 0.000000 0.000000 0.000000
