Rh Sn V
 1.0
5.745000 0.000000 0.000000
0.000000 5.745000 0.000000
0.000000 0.000000 7.291000
Rh Sn V
8 4 4
direct
 0.000000 0.500000 0.500000
 0.500000 0.000000 0.500000
 0.500000 0.000000 0.000000
 0.000000 0.500000 0.000000
 0.500000 0.500000 0.500000
 0.000000 0.000000 0.500000
 0.500000 0.500000 0.000000
 0.000000 0.000000 0.000000
 0.250000 0.750000 0.750000
 0.750000 0.250000 0.750000
 0.750000 0.750000 0.250000
 0.250000 0.250000 0.250000
 0.250000 0.750000 0.250000
 0.750000 0.250000 0.250000
 0.750000 0.750000 0.750000
 0.250000 0.250000 0.750000
