#(C) 2011 by Fachinformationszentrum Karlsruhe. All rights reserved.
data_105934-ICSD
_database_code_ICSD 105934
_audit_creation_date 2004-10-01
_audit_update_record 2009-02-01
_chemical_name_systematic 'Rhodium tin vanadium (2/1/1)'
_chemical_formula_structural 'Rh2 Sn V'
_chemical_formula_sum 'Rh2 Sn1 V1'
_exptl_crystal_density_diffrn 10.26
_cell_measurement_temperature 293.
#Default value included by FIZ Karlsruhe
_cell_measurement_pressure 101.325
#Default value included by FIZ Karlsruhe
_publ_section_title 'Structural instability in new magnetic Heusler compounds'
loop_
_citation_id
_citation_journal_full
_citation_year
_citation_journal_volume
_citation_page_first
_citation_page_last
_citation_journal_id_ASTM
primary 'Solid State Communications' 1976 18 423 425 SSCOA4
loop_
_publ_author_name
'Suits, J.C.'
_cell_length_a 5.745
_cell_length_b 5.745
_cell_length_c 7.291
_cell_angle_alpha 90.
_cell_angle_beta 90.
_cell_angle_gamma 90.
_cell_volume 240.64
_cell_formula_units_Z 4
_symmetry_space_group_name_H-M 'P 42/n c m S'
_symmetry_Int_Tables_number 138
loop_
_symmetry_equiv_pos_site_id
_symmetry_equiv_pos_as_xyz
1 'y+1/2, -x+1/2, z+1/2'
2 'y+1/2, x+1/2, z'
3 'y, x, -z+1/2'
4 'y, -x, -z'
5 '-y+1/2, x+1/2, z+1/2'
6 '-y+1/2, -x+1/2, z'
7 '-y, -x, -z+1/2'
8 '-y, x, -z'
9 '-x+1/2, -y+1/2, -z+1/2'
10 'x+1/2, -y+1/2, -z'
11 'x, -y, z+1/2'
12 '-x, -y, z'
13 'x+1/2, y+1/2, -z+1/2'
14 '-x+1/2, y+1/2, -z'
15 '-x, y, z+1/2'
16 'x, y, z'
loop_
_atom_type_symbol
_atom_type_oxidation_number
Rh0+ 0
Sn0+ 0
V0+ 0
loop_
_atom_site_label
_atom_site_type_symbol
_atom_site_symmetry_multiplicity
_atom_site_Wyckoff_symbol
_atom_site_fract_x
_atom_site_fract_y
_atom_site_fract_z
_atom_site_B_iso_or_equiv
_atom_site_occupancy
_atom_site_attached_hydrogens
Rh1 Rh0+ 4 b 0 0 0 0.0 1. 0
Rh2 Rh0+ 4 e 0 0.5 0 0.0 1. 0
Sn1 Sn0+ 4 c 0.25 0.25 0.25 0.0 1. 0
V1 V0+ 4 d 0.25 0.25 0.75 0.0 1. 0
#End of data_105934-ICSD
