Rh Sn V
 1.0
2.872500 2.872500 -0.000000
-2.872500 2.872500 -0.000000
0.000000 -2.872500 3.645500
Rh Sn V
2 1 1
direct
 0.0000000000 0.0000000000 0.0000000000
 0.5000000000 0.5000000000 0.0000000000
 0.7500000000 0.2500000000 0.5000000000
 0.2500000000 0.7500000000 0.5000000000
