Rh Sn V
1.0
        5.745000    0.000000    0.000000
        0.000000    5.745000    0.000000
        0.000000    0.000000    7.291000
Rh Sn V
8 4 4
Cartesian
0.00000000 0.00000000 0.00000000
2.87250000 2.87250000 0.00000000
0.00000000 0.00000000 3.64550000
2.87250000 2.87250000 3.64550000
0.00000000 2.87250000 0.00000000
2.87250000 0.00000000 0.00000000
2.87250000 0.00000000 3.64550000
0.00000000 2.87250000 3.64550000
1.43625000 1.43625000 1.82275000
4.30875000 4.30875000 1.82275000
4.30875000 1.43625000 5.46825000
1.43625000 4.30875000 5.46825000
1.43625000 1.43625000 5.46825000
4.30875000 4.30875000 5.46825000
4.30875000 1.43625000 1.82275000
1.43625000 4.30875000 1.82275000
