Rh Sn V
1.0
  -2.87250000000000 -2.87250000000000  0.00000000000000
  -2.87250000000000  2.87250000000000  0.00000000000000
   2.87250000000000  0.00000000000000 -3.64550000000000
Rh Sn V
2  1  1
Direct
  0.00000000000000 0.00000000000000 0.00000000000000
  0.50000000000000 0.50000000000000 0.00000000000000
  0.25000000000000 0.75000000000000 0.50000000000000
  0.75000000000000 0.25000000000000 0.50000000000000
