 PREC = MED
 ENCUT = 520
 LREAL = FALSE
 NSW = 0
 ISMEAR = -5
 SIGMA = 0.2
 ALGO = FAST
 NPAR = 2
 NSIM = 1
 LWAVE = .FALSE.
 ISTART = 1
