Sr Ge
 1.0
4.174588 0.000000 0.000000
-2.087294 3.615299 0.000000
0.000000 0.000000 5.207208
Ge Sr
2 1
direct
 0.333333 0.666667 0.405511
 0.666667 0.333333 0.594489
 0.000000 0.000000 0.000000
