Cr O In                                 
   1.00000000000000     
     3.8588293817703763    2.6884548057313915    0.0198747672552231
    -3.8588293817703763    2.6884548057313915   -0.0198747672552231
     0.0262276921079197    0.0000000000000000    6.1392892868301967
   Cr   In   O 
     3     1     8
Direct
  0.9999999763999980  0.0000000236000020  0.5000000305999990
  0.6390455930269930  0.3609544069730073  0.7375060611326947
  0.3609543597730034  0.6390456402269968  0.2624940016673034
  0.0000000000000000  0.0000000000000000  0.0000000000000000
  0.2504521380717801  0.7495478619282201  0.4973631603622080
  0.7234999232159541  0.2765000767840456  0.9867396097301051
  0.2488449024376645  0.2417217792801383  0.2674571267798673
  0.2417217309801432  0.2488449507376667  0.7325429345201319
  0.7511550492623333  0.7582782690198568  0.7325429345201319
  0.7582782207198617  0.7511550975623356  0.2674571267798673
  0.7495478135282161  0.2504521864717841  0.5026369023377888
  0.2765000295840417  0.7234999704159580  0.0132604529698983
 
  0.00000000E+00  0.00000000E+00  0.00000000E+00
  0.00000000E+00  0.00000000E+00  0.00000000E+00
  0.00000000E+00  0.00000000E+00  0.00000000E+00
  0.00000000E+00  0.00000000E+00  0.00000000E+00
  0.00000000E+00  0.00000000E+00  0.00000000E+00
  0.00000000E+00  0.00000000E+00  0.00000000E+00
  0.00000000E+00  0.00000000E+00  0.00000000E+00
  0.00000000E+00  0.00000000E+00  0.00000000E+00
  0.00000000E+00  0.00000000E+00  0.00000000E+00
  0.00000000E+00  0.00000000E+00  0.00000000E+00
  0.00000000E+00  0.00000000E+00  0.00000000E+00
  0.00000000E+00  0.00000000E+00  0.00000000E+00
