Cr O In
 1.0
4.235550 2.820200 0.000000
-4.235550 2.820200 0.000000
-0.004560 0.000000 6.532298
Cr In O
3 1 8
direct
 0.9999999764 0.0000000236 0.5000000306
 0.6423999651 0.3576000349 0.7359000462
 0.3575999877 0.6424000123 0.2641000166
 0.0000000000 0.0000000000 0.0000000000
 0.2228999778 0.7771000222 0.4522000282
 0.7427999547 0.2572000453 0.9571000603
 0.2106999866 0.2665000134 0.2741000166
 0.2664999651 0.2107000349 0.7259000447
 0.7892999651 0.7335000349 0.7259000447
 0.7334999866 0.7893000134 0.2741000166
 0.7770999738 0.2229000262 0.5478000345
 0.2571999981 0.7428000019 0.0429000024
