Rh Sn V
 1.0
5.745000 0.000000 0.000000
0.000000 5.745000 0.000000
0.000000 0.000000 7.291000
Rh Sn V
8 4 4
direct
 0.0000000000 0.5000000000 0.5000000000
 0.5000000000 0.0000000000 0.5000000000
 0.5000000000 0.0000000000 0.0000000000
 0.0000000000 0.5000000000 0.0000000000
 0.5000000000 0.5000000000 0.5000000000
 0.0000000000 0.0000000000 0.5000000000
 0.5000000000 0.5000000000 0.0000000000
 0.0000000000 0.0000000000 0.0000000000
 0.2500000000 0.7500000000 0.7500000000
 0.7500000000 0.2500000000 0.7500000000
 0.7500000000 0.7500000000 0.2500000000
 0.2500000000 0.2500000000 0.2500000000
 0.2500000000 0.7500000000 0.2500000000
 0.7500000000 0.2500000000 0.2500000000
 0.7500000000 0.7500000000 0.7500000000
 0.2500000000 0.2500000000 0.7500000000
