Cr O In                                 
   1.00000000000000     
     3.9148540000000001    2.8049590000000002    0.0256280000000000
    -3.9148540000000001    2.8049590000000002   -0.0256280000000000
     0.0351520000000000    0.0000000000000000    6.3431740000000003
   Cr   In   O 
     3     1     8
Direct
  0.9999978080000034  0.9999993321000034  0.5000004596000025
  0.6314583990000031  0.3685383884999993  0.7369877811999999
  0.3685394187999975  0.6314573686999978  0.2630131173999999
  0.0000000000000000  0.0000000000000000  0.0000000000000000
  0.2494635110999965  0.7505332762999970  0.4843271275000021
  0.7263408912000031  0.2736558962999993  0.9730425803999978
  0.2295229233000029  0.2439920174999983  0.2678202972999983
  0.2439930549000024  0.2295218858999988  0.7321790247999971
  0.7704784666999984  0.7560072977000019  0.7321790247999971
  0.7560083350999989  0.7704774293000014  0.2678202972999983
  0.7505343066999970  0.2494624807999983  0.5156737710999977
  0.2736556493999984  0.7263411380999969  0.0269583285000010
 
  0.00000000E+00  0.00000000E+00  0.00000000E+00
  0.00000000E+00  0.00000000E+00  0.00000000E+00
  0.00000000E+00  0.00000000E+00  0.00000000E+00
  0.00000000E+00  0.00000000E+00  0.00000000E+00
  0.00000000E+00  0.00000000E+00  0.00000000E+00
  0.00000000E+00  0.00000000E+00  0.00000000E+00
  0.00000000E+00  0.00000000E+00  0.00000000E+00
  0.00000000E+00  0.00000000E+00  0.00000000E+00
  0.00000000E+00  0.00000000E+00  0.00000000E+00
  0.00000000E+00  0.00000000E+00  0.00000000E+00
  0.00000000E+00  0.00000000E+00  0.00000000E+00
  0.00000000E+00  0.00000000E+00  0.00000000E+00
