Cr O In
 1.0
3.914854 2.804959 0.025628
-3.914854 2.804959 -0.025628
0.035152 0.000000 6.343174
Cr In O
3 1 8
direct
 0.9999978080 0.9999993321 0.5000004596
 0.6314583990 0.3685383885 0.7369877812
 0.3685394188 0.6314573687 0.2630131174
 0.0000000000 0.0000000000 0.0000000000
 0.2494635111 0.7505332763 0.4843271275
 0.7263408912 0.2736558963 0.9730425804
 0.2295229233 0.2439920175 0.2678202973
 0.2439930549 0.2295218859 0.7321790248
 0.7704784667 0.7560072977 0.7321790248
 0.7560083351 0.7704774293 0.2678202973
 0.7505343067 0.2494624808 0.5156737711
 0.2736556494 0.7263411381 0.0269583285
