Cr O In                                 
   1.00000000000000     
     4.2355499999999999    2.8201999999999998    0.0000000000000000
    -4.2355499999999999    2.8201999999999998    0.0000000000000000
    -0.0045600000000000    0.0000000000000000    6.5322979999999999
   Cr   In   O 
     3     1     8
Direct
  0.0000000000000000  0.0000000000000000  0.5000000000000000
  0.6424000000000021  0.3575999999999979  0.7359000000000009
  0.3575999999999979  0.6424000000000021  0.2640999999999991
  0.0000000000000000  0.0000000000000000  0.0000000000000000
  0.2229000000000028  0.7770999999999972  0.4521999999999977
  0.7428000000000026  0.2571999999999974  0.9570999999999970
  0.2107000000000028  0.2665000000000006  0.2740999999999971
  0.2665000000000006  0.2107000000000028  0.7259000000000029
  0.7892999999999972  0.7334999999999994  0.7259000000000029
  0.7334999999999994  0.7892999999999972  0.2740999999999971
  0.7770999999999972  0.2229000000000028  0.5478000000000023
  0.2571999999999974  0.7428000000000026  0.0429000000000030
 
  0.00000000E+00  0.00000000E+00  0.00000000E+00
  0.00000000E+00  0.00000000E+00  0.00000000E+00
  0.00000000E+00  0.00000000E+00  0.00000000E+00
  0.00000000E+00  0.00000000E+00  0.00000000E+00
  0.00000000E+00  0.00000000E+00  0.00000000E+00
  0.00000000E+00  0.00000000E+00  0.00000000E+00
  0.00000000E+00  0.00000000E+00  0.00000000E+00
  0.00000000E+00  0.00000000E+00  0.00000000E+00
  0.00000000E+00  0.00000000E+00  0.00000000E+00
  0.00000000E+00  0.00000000E+00  0.00000000E+00
  0.00000000E+00  0.00000000E+00  0.00000000E+00
  0.00000000E+00  0.00000000E+00  0.00000000E+00
