Cr O In
 1.0
4.235550 2.820200 0.000000
-4.235550 2.820200 0.000000
-0.004560 0.000000 6.532298
Cr In O
3 1 8
direct
 1.000000 0.000000 0.500000
 0.642400 0.357600 0.735900
 0.357600 0.642400 0.264100
 0.000000 0.000000 0.000000
 0.222900 0.777100 0.452200
 0.742800 0.257200 0.957100
 0.210700 0.266500 0.274100
 0.266500 0.210700 0.725900
 0.789300 0.733500 0.725900
 0.733500 0.789300 0.274100
 0.777100 0.222900 0.547800
 0.257200 0.742800 0.042900
