I H C Pb N
 1.0
8.849000 0.000000 0.000000
0.000000 8.849000 0.000000
0.000000 0.000000 12.642000
C H I N Pb
4 24 12 4 4
direct
 0.5000000000 0.0000000000 0.3520000000
 0.0000000000 0.5000000000 0.3520000000
 0.5000000000 0.0000000000 0.8520000000
 0.0000000000 0.5000000000 0.8520000000
 0.4192928185 0.0000000000 0.1855075266
 0.5570685953 0.0570685953 0.1855075266
 0.0570685953 0.4429314047 0.1855075266
 0.9192928185 0.5000000000 0.1855075266
 0.0570685953 0.5570685953 0.1855075266
 0.5570685953 0.9429314047 0.1855075266
 0.5870998295 0.0000000000 0.4129671248
 0.4384111199 0.0615888801 0.4129671248
 0.9384111199 0.4384111199 0.4129671248
 0.0870998295 0.5000000000 0.4129671248
 0.9384111199 0.5615888801 0.4129671248
 0.4384111199 0.9384111199 0.4129671248
 0.4192928185 0.0000000000 0.6855075266
 0.5570685953 0.0570685953 0.6855075266
 0.0570685953 0.4429314047 0.6855075266
 0.9192928185 0.5000000000 0.6855075266
 0.0570685953 0.5570685953 0.6855075266
 0.5570685953 0.9429314047 0.6855075266
 0.5870998295 0.0000000000 0.9129671248
 0.4384111199 0.0615888801 0.9129671248
 0.9384111199 0.4384111199 0.9129671248
 0.0870998295 0.5000000000 0.9129671248
 0.9384111199 0.5615888801 0.9129671248
 0.4384111199 0.9384111199 0.9129671248
 0.2858300000 0.2141700000 0.0046000000
 0.7858300000 0.2858300000 0.0046000000
 0.2141700000 0.7141700000 0.0046000000
 0.7141700000 0.7858300000 0.0046000000
 0.0000000000 0.0000000000 0.2472000000
 0.5000000000 0.5000000000 0.2472000000
 0.7141700000 0.2141700000 0.5046000000
 0.2141700000 0.2858300000 0.5046000000
 0.7858300000 0.7141700000 0.5046000000
 0.2858300000 0.7858300000 0.5046000000
 0.0000000000 0.0000000000 0.7472000000
 0.5000000000 0.5000000000 0.7472000000
 0.5000000000 0.0000000000 0.2420000000
 0.0000000000 0.5000000000 0.2420000000
 0.5000000000 0.0000000000 0.7420000000
 0.0000000000 0.5000000000 0.7420000000
 0.0000000000 0.0000000000 0.0000000000
 0.5000000000 0.5000000000 0.0000000000
 0.0000000000 0.0000000000 0.5000000000
 0.5000000000 0.5000000000 0.5000000000
