Ge Sr                                   
   1.00000000000000     
     4.1625466442164836    0.0000000000000000    0.0000000000000000
    -2.0812733221082418    3.6048710708401157    0.0000000000000000
     0.0000000000000000    0.0000000000000000    5.1839435857197484
   Ge   Sr
   2   1
Direct
  0.3333330000000032  0.6666669999999968  0.4043338507048446
  0.6666669999999968  0.3333330000000032  0.5956661492951554
  0.0000000000000000  0.0000000000000000  0.0000000000000000
 
  0.00000000E+00  0.00000000E+00  0.00000000E+00
  0.00000000E+00  0.00000000E+00  0.00000000E+00
  0.00000000E+00  0.00000000E+00  0.00000000E+00
