 PREC = MED
 ENCUT = 373
 ISIF = 3
 IBRION = 1
 NSW = 40
 ISMEAR = 0
 SIGMA = 0.2
 ALGO = FAST
 NPAR = 2
 NSIM = 1
 LWAVE = .FALSE.
 ISTART = 1
