Sr Ge
 1.0
4.162547 0.000000 0.000000
-2.081273 3.604871 0.000000
0.000000 0.000000 5.183944
Ge Sr
2 1
direct
 0.333333 0.666667 0.404334
 0.666667 0.333333 0.595666
 0.000000 0.000000 0.000000
