Rh Sn V                                 
   1.00000000000000     
     5.7079180188918057    0.0000000000000000    0.0000000000000000
     0.0000000000000000    5.7079180188918057    0.0000000000000000
     0.0000000000000000    0.0000000000000000    7.4089506144700010
   Rh   Sn   V 
     8     4     4
Direct
  0.0000000000000000  0.5000004826000009  0.4999993975999999
  0.5000004826000009  0.0000000000000000  0.4999993975999999
  0.5000004826000009  0.0000000000000000  0.0000000000000000
  0.0000000000000000  0.5000004826000009  0.0000000000000000
  0.5000004826000009  0.5000004826000009  0.4999993975999999
  0.0000000000000000  0.0000000000000000  0.4999993975999999
  0.5000004826000009  0.5000004826000009  0.0000000000000000
  0.0000000000000000  0.0000000000000000  0.0000000000000000
  0.2499993372000020  0.7499998198000029  0.7499997991000029
  0.7499998198000029  0.2499993372000020  0.7499997991000029
  0.7499998198000029  0.7499998198000029  0.2500004015000030
  0.2499993372000020  0.2499993372000020  0.2500004015000030
  0.2499993372000020  0.7499998198000029  0.2500004015000030
  0.7499998198000029  0.2499993372000020  0.2500004015000030
  0.7499998198000029  0.7499998198000029  0.7499997991000029
  0.2499993372000020  0.2499993372000020  0.7499997991000029
 
  0.00000000E+00  0.00000000E+00  0.00000000E+00
  0.00000000E+00  0.00000000E+00  0.00000000E+00
  0.00000000E+00  0.00000000E+00  0.00000000E+00
  0.00000000E+00  0.00000000E+00  0.00000000E+00
  0.00000000E+00  0.00000000E+00  0.00000000E+00
  0.00000000E+00  0.00000000E+00  0.00000000E+00
  0.00000000E+00  0.00000000E+00  0.00000000E+00
  0.00000000E+00  0.00000000E+00  0.00000000E+00
  0.00000000E+00  0.00000000E+00  0.00000000E+00
  0.00000000E+00  0.00000000E+00  0.00000000E+00
  0.00000000E+00  0.00000000E+00  0.00000000E+00
  0.00000000E+00  0.00000000E+00  0.00000000E+00
  0.00000000E+00  0.00000000E+00  0.00000000E+00
  0.00000000E+00  0.00000000E+00  0.00000000E+00
  0.00000000E+00  0.00000000E+00  0.00000000E+00
  0.00000000E+00  0.00000000E+00  0.00000000E+00
