Rh Sn V
 1.0
5.530335 0.000000 0.000000
0.000000 5.530335 0.000000
0.000000 0.000000 7.115349
Rh Sn V
8 4 4
direct
 0.0000000000 0.5000004826 0.4999993976
 0.5000004826 0.0000000000 0.4999993976
 0.5000004826 0.0000000000 0.0000000000
 0.0000000000 0.5000004826 0.0000000000
 0.5000004826 0.5000004826 0.4999993976
 0.0000000000 0.0000000000 0.4999993976
 0.5000004826 0.5000004826 0.0000000000
 0.0000000000 0.0000000000 0.0000000000
 0.2499993372 0.7499998198 0.7499997991
 0.7499998198 0.2499993372 0.7499997991
 0.7499998198 0.7499998198 0.2500004015
 0.2499993372 0.2499993372 0.2500004015
 0.2499993372 0.7499998198 0.2500004015
 0.7499998198 0.2499993372 0.2500004015
 0.7499998198 0.7499998198 0.7499997991
 0.2499993372 0.2499993372 0.7499997991
