Ge Sr                                   
   1.00000000000000     
     4.1745882312958580    0.0000000000000000    0.0000000000000000
    -2.0872941156479290    3.6152993905625324    0.0000000000000000
     0.0000000000000000    0.0000000000000000    5.2072075675362166
   Ge   Sr
   2   1
Direct
  0.3333330000000032  0.6666669999999968  0.4055107025629059
  0.6666669999999968  0.3333330000000032  0.5944892974370941
  0.0000000000000000  0.0000000000000000  0.0000000000000000
 
  0.00000000E+00  0.00000000E+00  0.00000000E+00
  0.00000000E+00  0.00000000E+00  0.00000000E+00
  0.00000000E+00  0.00000000E+00  0.00000000E+00
