Be Cl
1.0
  2.202001427418  -2.202001427418   0.000000000000
 -2.202001427418   0.000000000000  -2.202001427418
  2.202001427418   2.202001427418   0.000000000000
Be Cl
1 1
Direct
  0.000000000000   0.000000000000   0.000000000000
  0.500000000000   0.000000000000   0.500000000000

