Be Cl
1.0
  2.499629100814  -2.499629100814   0.000000000000
 -2.499629100814   0.000000000000  -2.499629100814
  2.499629100814   2.499629100814   0.000000000000
Be Cl
1 1
Direct
  0.000000000000   0.000000000000   0.000000000000
  0.500000000000   0.000000000000   0.500000000000

