Fe
 1.0
10.873950 3.624650 14.498600
-3.624650 18.123250 3.624650
0.000000 3.624650 14.498600
Fe
228
direct
 0.5000000000 0.0000000000 -0.0000000000
 0.0000000000 0.0000000000 0.0000000000
 0.2807017544 0.3421052632 0.0087719298
 0.7807017544 0.3421052632 0.0087719298
 0.5614035088 0.6842105263 0.0175438596
 0.0614035088 0.6842105263 0.0175438596
 0.3421052632 0.0263157895 0.0263157895
 0.8421052632 0.0263157895 0.0263157895
 0.1228070175 0.3684210526 0.0350877193
 0.6228070175 0.3684210526 0.0350877193
 0.4035087719 0.7105263158 0.0438596491
 0.9035087719 0.7105263158 0.0438596491
 0.6842105263 0.0526315789 0.0526315789
 0.1842105263 0.0526315789 0.0526315789
 0.4649122807 0.3947368421 0.0614035088
 0.9649122807 0.3947368421 0.0614035088
 0.2456140351 0.7368421053 0.0701754386
 0.7456140351 0.7368421053 0.0701754386
 0.5263157895 0.0789473684 0.0789473684
 0.0263157895 0.0789473684 0.0789473684
 0.3070175439 0.4210526316 0.0877192982
 0.8070175439 0.4210526316 0.0877192982
 0.5877192982 0.7631578947 0.0964912281
 0.0877192982 0.7631578947 0.0964912281
 0.3684210526 0.1052631579 0.1052631579
 0.8684210526 0.1052631579 0.1052631579
 0.1491228070 0.4473684211 0.1140350877
 0.6491228070 0.4473684211 0.1140350877
 0.4298245614 0.7894736842 0.1228070175
 0.9298245614 0.7894736842 0.1228070175
 0.2105263158 0.1315789474 0.1315789474
 0.7105263158 0.1315789474 0.1315789474
 0.9912280702 0.4736842105 0.1403508772
 0.4912280702 0.4736842105 0.1403508772
 0.2719298246 0.8157894737 0.1491228070
 0.7719298246 0.8157894737 0.1491228070
 0.0526315789 0.1578947368 0.1578947368
 0.5526315789 0.1578947368 0.1578947368
 0.3333333333 0.5000000000 0.1666666667
 0.8333333333 0.5000000000 0.1666666667
 0.6140350877 0.8421052632 0.1754385965
 0.1140350877 0.8421052632 0.1754385965
 0.3947368421 0.1842105263 0.1842105263
 0.8947368421 0.1842105263 0.1842105263
 0.1754385965 0.5263157895 0.1929824561
 0.6754385965 0.5263157895 0.1929824561
 0.4561403509 0.8684210526 0.2017543860
 0.9561403509 0.8684210526 0.2017543860
 0.2368421053 0.2105263158 0.2105263158
 0.7368421053 0.2105263158 0.2105263158
 0.0175438596 0.5526315789 0.2192982456
 0.5175438596 0.5526315789 0.2192982456
 0.2982456140 0.8947368421 0.2280701754
 0.7982456140 0.8947368421 0.2280701754
 0.0789473684 0.2368421053 0.2368421053
 0.5789473684 0.2368421053 0.2368421053
 0.3596491228 0.5789473684 0.2456140351
 0.8596491228 0.5789473684 0.2456140351
 0.6403508772 0.9210526316 0.2543859649
 0.1403508772 0.9210526316 0.2543859649
 0.9210526316 0.2631578947 0.2631578947
 0.4210526316 0.2631578947 0.2631578947
 0.2017543860 0.6052631579 0.2719298246
 0.7017543860 0.6052631579 0.2719298246
 0.9824561404 0.9473684211 0.2807017544
 0.4824561404 0.9473684211 0.2807017544
 0.2631578947 0.2894736842 0.2894736842
 0.7631578947 0.2894736842 0.2894736842
 0.5438596491 0.6315789474 0.2982456140
 0.0438596491 0.6315789474 0.2982456140
 0.3245614035 0.9736842105 0.3070175439
 0.8245614035 0.9736842105 0.3070175439
 0.1052631579 0.3157894737 0.3157894737
 0.6052631579 0.3157894737 0.3157894737
 0.3859649123 0.6578947368 0.3245614035
 0.8859649123 0.6578947368 0.3245614035
 0.6666666667 0.0000000000 0.3333333333
 0.1666666667 0.0000000000 0.3333333333
 0.9473684211 0.3421052632 0.3421052632
 0.4473684211 0.3421052632 0.3421052632
 0.2280701754 0.6842105263 0.3508771930
 0.7280701754 0.6842105263 0.3508771930
 0.0087719298 0.0263157895 0.3596491228
 0.5087719298 0.0263157895 0.3596491228
 0.2894736842 0.3684210526 0.3684210526
 0.7894736842 0.3684210526 0.3684210526
 0.5701754386 0.7105263158 0.3771929825
 0.0701754386 0.7105263158 0.3771929825
 0.8508771930 0.0526315789 0.3859649123
 0.3508771930 0.0526315789 0.3859649123
 0.1315789474 0.3947368421 0.3947368421
 0.6315789474 0.3947368421 0.3947368421
 0.9122807018 0.7368421053 0.4035087719
 0.4122807018 0.7368421053 0.4035087719
 0.1929824561 0.0789473684 0.4122807018
 0.6929824561 0.0789473684 0.4122807018
 0.4736842105 0.4210526316 0.4210526316
 0.9736842105 0.4210526316 0.4210526316
 0.2543859649 0.7631578947 0.4298245614
 0.7543859649 0.7631578947 0.4298245614
 0.0350877193 0.1052631579 0.4385964912
 0.5350877193 0.1052631579 0.4385964912
 0.3157894737 0.4473684211 0.4473684211
 0.8157894737 0.4473684211 0.4473684211
 0.5964912281 0.7894736842 0.4561403509
 0.0964912281 0.7894736842 0.4561403509
 0.8771929825 0.1315789474 0.4649122807
 0.3771929825 0.1315789474 0.4649122807
 0.6578947368 0.4736842105 0.4736842105
 0.1578947368 0.4736842105 0.4736842105
 0.9385964912 0.8157894737 0.4824561404
 0.4385964912 0.8157894737 0.4824561404
 0.2192982456 0.1578947368 0.4912280702
 0.7192982456 0.1578947368 0.4912280702
 0.5000000000 0.5000000000 0.5000000000
 0.0000000000 0.5000000000 0.5000000000
 0.7807017544 0.8421052632 0.5087719298
 0.2807017544 0.8421052632 0.5087719298
 0.0614035088 0.1842105263 0.5175438596
 0.5614035088 0.1842105263 0.5175438596
 0.8421052632 0.5263157895 0.5263157895
 0.3421052632 0.5263157895 0.5263157895
 0.6228070175 0.8684210526 0.5350877193
 0.1228070175 0.8684210526 0.5350877193
 0.4035087719 0.2105263158 0.5438596491
 0.9035087719 0.2105263158 0.5438596491
 0.1842105263 0.5526315789 0.5526315789
 0.6842105263 0.5526315789 0.5526315789
 0.4649122807 0.8947368421 0.5614035088
 0.9649122807 0.8947368421 0.5614035088
 0.2456140351 0.2368421053 0.5701754386
 0.7456140351 0.2368421053 0.5701754386
 0.5263157895 0.5789473684 0.5789473684
 0.0263157895 0.5789473684 0.5789473684
 0.8070175439 0.9210526316 0.5877192982
 0.3070175439 0.9210526316 0.5877192982
 0.5877192982 0.2631578947 0.5964912281
 0.0877192982 0.2631578947 0.5964912281
 0.8684210526 0.6052631579 0.6052631579
 0.3684210526 0.6052631579 0.6052631579
 0.6491228070 0.9473684211 0.6140350877
 0.1491228070 0.9473684211 0.6140350877
 0.4298245614 0.2894736842 0.6228070175
 0.9298245614 0.2894736842 0.6228070175
 0.7105263158 0.6315789474 0.6315789474
 0.2105263158 0.6315789474 0.6315789474
 0.4912280702 0.9736842105 0.6403508772
 0.9912280702 0.9736842105 0.6403508772
 0.7719298246 0.3157894737 0.6491228070
 0.2719298246 0.3157894737 0.6491228070
 0.5526315789 0.6578947368 0.6578947368
 0.0526315789 0.6578947368 0.6578947368
 0.3333333333 0.0000000000 0.6666666667
 0.8333333333 0.0000000000 0.6666666667
 0.6140350877 0.3421052632 0.6754385965
 0.1140350877 0.3421052632 0.6754385965
 0.3947368421 0.6842105263 0.6842105263
 0.8947368421 0.6842105263 0.6842105263
 0.1754385965 0.0263157895 0.6929824561
 0.6754385965 0.0263157895 0.6929824561
 0.4561403509 0.3684210526 0.7017543860
 0.9561403509 0.3684210526 0.7017543860
 0.7368421053 0.7105263158 0.7105263158
 0.2368421053 0.7105263158 0.7105263158
 0.5175438596 0.0526315789 0.7192982456
 0.0175438596 0.0526315789 0.7192982456
 0.7982456140 0.3947368421 0.7280701754
 0.2982456140 0.3947368421 0.7280701754
 0.5789473684 0.7368421053 0.7368421053
 0.0789473684 0.7368421053 0.7368421053
 0.3596491228 0.0789473684 0.7456140351
 0.8596491228 0.0789473684 0.7456140351
 0.6403508772 0.4210526316 0.7543859649
 0.1403508772 0.4210526316 0.7543859649
 0.4210526316 0.7631578947 0.7631578947
 0.9210526316 0.7631578947 0.7631578947
 0.7017543860 0.1052631579 0.7719298246
 0.2017543860 0.1052631579 0.7719298246
 0.4824561404 0.4473684211 0.7807017544
 0.9824561404 0.4473684211 0.7807017544
 0.2631578947 0.7894736842 0.7894736842
 0.7631578947 0.7894736842 0.7894736842
 0.5438596491 0.1315789474 0.7982456140
 0.0438596491 0.1315789474 0.7982456140
 0.3245614035 0.4736842105 0.8070175439
 0.8245614035 0.4736842105 0.8070175439
 0.6052631579 0.8157894737 0.8157894737
 0.1052631579 0.8157894737 0.8157894737
 0.3859649123 0.1578947368 0.8245614035
 0.8859649123 0.1578947368 0.8245614035
 0.6666666667 0.5000000000 0.8333333333
 0.1666666667 0.5000000000 0.8333333333
 0.4473684211 0.8421052632 0.8421052632
 0.9473684211 0.8421052632 0.8421052632
 0.7280701754 0.1842105263 0.8508771930
 0.2280701754 0.1842105263 0.8508771930
 0.5087719298 0.5263157895 0.8596491228
 0.0087719298 0.5263157895 0.8596491228
 0.2894736842 0.8684210526 0.8684210526
 0.7894736842 0.8684210526 0.8684210526
 0.5701754386 0.2105263158 0.8771929825
 0.0701754386 0.2105263158 0.8771929825
 0.3508771930 0.5526315789 0.8859649123
 0.8508771930 0.5526315789 0.8859649123
 0.6315789474 0.8947368421 0.8947368421
 0.1315789474 0.8947368421 0.8947368421
 0.4122807018 0.2368421053 0.9035087719
 0.9122807018 0.2368421053 0.9035087719
 0.1929824561 0.5789473684 0.9122807018
 0.6929824561 0.5789473684 0.9122807018
 0.4736842105 0.9210526316 0.9210526316
 0.9736842105 0.9210526316 0.9210526316
 0.2543859649 0.2631578947 0.9298245614
 0.7543859649 0.2631578947 0.9298245614
 0.5350877193 0.6052631579 0.9385964912
 0.0350877193 0.6052631579 0.9385964912
 0.3157894737 0.9473684211 0.9473684211
 0.8157894737 0.9473684211 0.9473684211
 0.5964912281 0.2894736842 0.9561403509
 0.0964912281 0.2894736842 0.9561403509
 0.3771929825 0.6315789474 0.9649122807
 0.8771929825 0.6315789474 0.9649122807
 0.6578947368 0.9736842105 0.9736842105
 0.1578947368 0.9736842105 0.9736842105
 0.4385964912 0.3157894737 0.9824561404
 0.9385964912 0.3157894737 0.9824561404
 0.2192982456 0.6578947368 0.9912280702
 0.7192982456 0.6578947368 0.9912280702
