Cu
1.0
  3.540000000000   0.000000000000   0.000000000000
  0.000000000000   3.540000000000   0.000000000000
  0.000000000000   0.000000000000   3.540000000000
2
Direct
  0.000000000000   0.000000000000   0.000000000000
  0.500000000000   0.500000000000   0.500000000000
