S Zn
 1.0
0.000000 2.736061 2.736061
2.736061 0.000000 2.736061
2.736061 2.736061 0.000000
S Zn
1 1
direct
 0.0000000000 0.0000000000 0.0000000000
 0.2500000000 0.2500000000 0.2500000000
