Na Cl 
1.0
 3.0 0.0 0.0
 0.0 3.0 0.0 
 0.0 0.0 3.0
Na Cl
1 1
direct
 0.000000 0.000000 0.000000
 0.5 0.5 0.5 
