Cs Cl
 1.0
5.238083 0.000000 0.000000
0.000000 5.238083 0.000000
0.000000 0.000000 5.238083
Cl Cs
1 1
direct
 0.5000000000 0.5000000000 0.5000000000
 0.0000000000 0.0000000000 0.0000000000
