Fe
 1.0
3.624650 3.624650 0.000000
-3.624650 7.249300 3.624650
0.000000 3.624650 7.249300
Fe
20
direct
 0.0000000000 0.0000000000 0.0000000000
 0.5000000000 0.0000000000 0.0000000000
 0.5000000000 0.5000000000 0.0000000000
 0.0000000000 0.5000000000 0.0000000000
 0.6000000000 0.1000000000 0.2000000000
 0.1000000000 0.6000000000 0.2000000000
 0.6000000000 0.6000000000 0.2000000000
 0.1000000000 0.1000000000 0.2000000000
 0.2000000000 0.2000000000 0.4000000000
 0.7000000000 0.2000000000 0.4000000000
 0.7000000000 0.7000000000 0.4000000000
 0.2000000000 0.7000000000 0.4000000000
 0.8000000000 0.3000000000 0.6000000000
 0.3000000000 0.3000000000 0.6000000000
 0.3000000000 0.8000000000 0.6000000000
 0.8000000000 0.8000000000 0.6000000000
 0.4000000000 0.4000000000 0.8000000000
 0.9000000000 0.4000000000 0.8000000000
 0.4000000000 0.9000000000 0.8000000000
 0.9000000000 0.9000000000 0.8000000000
